desiredZ=[1];
nNurses = 128;
hours = 48;
demand = [19 31 14 13 26 27 7 21 9 11 25 11 29 15 27 4 12 1 27 28 15 14 31 12 9 4 29 25 16 23 26 21 3 20 27 15 13 20 6 7 21 31 3 21 16 1 5 9];
minHours = 15;
maxHours = 25;
maxConsec = 10;
maxPresence = 28;